p gcnf 50 159 159
{1} 1 2 -3 0
{2} 1 -2 3 0
{3} -1 2 3 0
{4} -1 -2 -3 0
{5} 4 5 6 0
{6} 4 -5 -6 0
{7} -4 5 -6 0
{8} -4 -5 6 0
{9} -7 4 0
{10} -7 1 0
{11} 8 2 -6 0
{12} 8 -2 6 0
{13} -8 2 6 0
{14} -8 -2 -6 0
{15} 9 5 3 0
{16} 9 -5 -3 0
{17} -9 5 -3 0
{18} -9 -5 3 0
{19} -10 9 0
{20} -10 8 0
{21} 11 5 -3 0
{22} 11 -5 3 0
{23} -11 5 3 0
{24} -11 -5 -3 0
{25} 12 2 6 0
{26} 12 -2 -6 0
{27} -12 2 -6 0
{28} -12 -2 6 0
{29} -13 12 0
{30} -13 11 0
{31} 14 5 -6 0
{32} 14 -5 6 0
{33} -14 5 6 0
{34} -14 -5 -6 0
{35} 15 2 3 0
{36} 15 -2 -3 0
{37} -15 2 -3 0
{38} -15 -2 3 0
{39} -16 15 0
{40} -16 14 0
{41} 17 -16 0
{42} 17 -13 0
{43} 17 -10 0
{44} 17 -7 0
{45} 16 13 10 7 -17 0
{46} 18 19 -20 0
{47} 18 -19 20 0
{48} -18 19 20 0
{49} -18 -19 -20 0
{50} 21 22 23 0
{51} 21 -22 -23 0
{52} -21 22 -23 0
{53} -21 -22 23 0
{54} -24 21 0
{55} -24 18 0
{56} 25 19 -23 0
{57} 25 -19 23 0
{58} -25 19 23 0
{59} -25 -19 -23 0
{60} 26 22 20 0
{61} 26 -22 -20 0
{62} -26 22 -20 0
{63} -26 -22 20 0
{64} -27 26 0
{65} -27 25 0
{66} 28 22 -20 0
{67} 28 -22 20 0
{68} -28 22 20 0
{69} -28 -22 -20 0
{70} 29 19 23 0
{71} 29 -19 -23 0
{72} -29 19 -23 0
{73} -29 -19 23 0
{74} -30 29 0
{75} -30 28 0
{76} 31 22 -23 0
{77} 31 -22 23 0
{78} -31 22 23 0
{79} -31 -22 -23 0
{80} 32 19 20 0
{81} 32 -19 -20 0
{82} -32 19 -20 0
{83} -32 -19 20 0
{84} -33 32 0
{85} -33 31 0
{86} -34 35 0
{87} -34 36 0
{88} -37 38 0
{89} -37 39 0
{90} -40 41 0
{91} -40 42 0
{92} -43 44 0
{93} -43 45 0
{94} 46 -43 0
{95} 46 -40 0
{96} 46 -37 0
{97} 46 -34 0
{98} 46 -33 0
{99} 46 -30 0
{100} 46 -27 0
{101} 46 -24 0
{102} 43 40 37 34 33 30 27 24 -46 0
{103} 44 47 48 0
{104} 44 -47 -48 0
{105} -44 47 -48 0
{106} -44 -47 48 0
{107} 45 49 -50 0
{108} 45 -49 50 0
{109} -45 49 50 0
{110} -45 -49 -50 0
{111} 41 47 50 0
{112} 41 -47 -50 0
{113} -41 47 -50 0
{114} -41 -47 50 0
{115} 42 49 -48 0
{116} 42 -49 48 0
{117} -42 49 48 0
{118} -42 -49 -48 0
{119} 38 49 48 0
{120} 38 -49 -48 0
{121} -38 49 -48 0
{122} -38 -49 48 0
{123} 39 47 -50 0
{124} 39 -47 50 0
{125} -39 47 50 0
{126} -39 -47 -50 0
{127} 35 49 50 0
{128} 35 -49 -50 0
{129} -35 49 -50 0
{130} -35 -49 50 0
{131} 36 47 -48 0
{132} 36 -47 48 0
{133} -36 47 48 0
{134} -36 -47 -48 0
{135} 36 35 0
{136} 39 38 0
{137} 42 41 0
{138} 45 44 0
{139} -47 48 0
{140} 47 -48 0
{141} -49 50 0
{142} 49 -50 0
{143} -19 49 0
{144} 19 -49 0
{145} -22 47 0
{146} 22 -47 0
{147} -20 48 0
{148} 20 -48 0
{149} -23 50 0
{150} 23 -50 0
{151} -2 22 0
{152} 2 -22 0
{153} -5 19 0
{154} 5 -19 0
{155} -3 20 0
{156} 3 -20 0
{157} -6 23 0
{158} 6 -23 0
{159} 46 17 0
c restrict -159 102  0
c restrict -102 45  0
c restrict -45 159  0
c restrict -3 10  0
c restrict -4 10  0
c restrict -7 9  0
c restrict -8 9  0
c restrict -9 159  0
c restrict -10 159  0
c restrict -13 20  0
c restrict -14 20  0
c restrict -17 19  0
c restrict -18 19  0
c restrict -19 159  0
c restrict -20 159  0
c restrict -23 30  0
c restrict -24 30  0
c restrict -27 29  0
c restrict -28 29  0
c restrict -29 159  0
c restrict -30 159  0
c restrict -33 40  0
c restrict -34 40  0
c restrict -37 39  0
c restrict -38 39  0
c restrict -39 159  0
c restrict -40 159  0
c restrict -48 55  0
c restrict -49 55  0
c restrict -52 54  0
c restrict -53 54  0
c restrict -54 159  0
c restrict -55 159  0
c restrict -58 65  0
c restrict -59 65  0
c restrict -62 64  0
c restrict -63 64  0
c restrict -64 159  0
c restrict -65 159  0
c restrict -68 75  0
c restrict -69 75  0
c restrict -72 74  0
c restrict -73 74  0
c restrict -74 159  0
c restrict -75 159  0
c restrict -78 85  0
c restrict -79 85  0
c restrict -82 84  0
c restrict -83 84  0
c restrict -84 159  0
c restrict -85 159  0
c restrict -86 159  0
c restrict -87 159  0
c restrict -88 159  0
c restrict -89 159  0
c restrict -90 159  0
c restrict -91 159  0
c restrict -92 159  0
c restrict -93 159  0
c restrict -143 159  0
c restrict -144 159  0
c restrict -145 159  0
c restrict -146 159  0
c restrict -147 159  0
c restrict -148 159  0
c restrict -149 159  0
c restrict -150 159  0
c restrict -151 159  0
c restrict -152 159  0
c restrict -153 159  0
c restrict -154 159  0
c restrict -155 159  0
c restrict -156 159  0
c restrict -157 159  0
c restrict -158 159  0
